50
1 0 5
2 0 94
2 1 111
3 0 20
3 1 91
3 2 9
4 0 51
4 1 67
4 2 93
4 3 11
5 0 101
5 1 93
5 2 104
5 3 43
5 4 8
6 0 67
6 1 25
6 2 9
6 3 21
6 4 79
6 5 42
7 0 41
7 1 102
7 2 51
7 3 1
7 4 76
7 5 64
7 6 17
8 0 112
8 1 83
8 2 69
8 3 5
8 4 109
8 5 82
8 6 91
8 7 25
9 0 88
9 1 41
9 2 103
9 3 120
9 4 71
9 5 25
9 6 25
9 7 65
9 8 44
10 0 55
10 1 53
10 2 48
10 3 78
10 4 93
10 5 94
10 6 84
10 7 59
10 8 23
10 9 75
11 0 120
11 1 33
11 2 9
11 3 34
11 4 109
11 5 20
11 6 64
11 7 15
11 8 24
11 9 1
11 10 103
12 0 57
12 1 102
12 2 81
12 3 117
12 4 120
12 5 41
12 6 24
12 7 100
12 8 55
12 9 10
12 10 28
12 11 37
13 0 9
13 1 104
13 2 71
13 3 4
13 4 97
13 5 70
13 6 6
13 7 21
13 8 49
13 9 94
13 10 62
13 11 20
13 12 115
14 0 88
14 1 39
14 2 96
14 3 32
14 4 116
14 5 34
14 6 42
14 7 46
14 8 71
14 9 76
14 10 52
14 11 10
14 12 99
14 13 22
15 0 109
15 1 3
15 2 65
15 3 21
15 4 2
15 5 2
15 6 87
15 7 80
15 8 61
15 9 64
15 10 21
15 11 58
15 12 63
15 13 54
15 14 101
16 0 12
16 1 43
16 2 82
16 3 80
16 4 111
16 5 66
16 6 7
16 7 92
16 8 93
16 9 94
16 10 85
16 11 35
16 12 85
16 13 69
16 14 103
16 15 56
17 0 51
17 1 96
17 2 87
17 3 55
17 4 87
17 5 53
17 6 99
17 7 16
17 8 4
17 9 18
17 10 12
17 11 108
17 12 93
17 13 66
17 14 58
17 15 28
17 16 19
18 0 34
18 1 114
18 2 46
18 3 86
18 4 33
18 5 5
18 6 67
18 7 59
18 8 93
18 9 60
18 10 65
18 11 119
18 12 2
18 13 63
18 14 54
18 15 2
18 16 86
18 17 81
19 0 29
19 1 12
19 2 68
19 3 59
19 4 117
19 5 36
19 6 72
19 7 53
19 8 15
19 9 41
19 10 10
19 11 78
19 12 43
19 13 58
19 14 12
19 15 57
19 16 73
19 17 73
19 18 39
20 0 14
20 1 34
20 2 45
20 3 42
20 4 66
20 5 7
20 6 55
20 7 75
20 8 77
20 9 62
20 10 22
20 11 16
20 12 24
20 13 64
20 14 15
20 15 114
20 16 38
20 17 42
20 18 51
20 19 73
21 0 22
21 1 65
21 2 112
21 3 99
21 4 45
21 5 49
21 6 54
21 7 112
21 8 22
21 9 60
21 10 71
21 11 37
21 12 57
21 13 32
21 14 16
21 15 40
21 16 35
21 17 17
21 18 102
21 19 100
21 20 118
22 0 46
22 1 21
22 2 20
22 3 92
22 4 75
22 5 19
22 6 13
22 7 99
22 8 108
22 9 74
22 10 53
22 11 65
22 12 75
22 13 66
22 14 98
22 15 36
22 16 90
22 17 109
22 18 31
22 19 4
22 20 11
22 21 72
23 0 59
23 1 57
23 2 73
23 3 23
23 4 93
23 5 83
23 6 3
23 7 77
23 8 14
23 9 64
23 10 21
23 11 22
23 12 1
23 13 99
23 14 105
23 15 115
23 16 109
23 17 85
23 18 33
23 19 31
23 20 31
23 21 26
23 22 118
24 0 39
24 1 97
24 2 22
24 3 40
24 4 13
24 5 40
24 6 117
24 7 80
24 8 55
24 9 25
24 10 68
24 11 71
24 12 72
24 13 39
24 14 22
24 15 38
24 16 106
24 17 43
24 18 35
24 19 93
24 20 27
24 21 39
24 22 96
24 23 13
25 0 77
25 1 120
25 2 79
25 3 61
25 4 94
25 5 69
25 6 41
25 7 98
25 8 56
25 9 80
25 10 95
25 11 11
25 12 70
25 13 69
25 14 101
25 15 23
25 16 94
25 17 31
25 18 24
25 19 11
25 20 110
25 21 82
25 22 65
25 23 45
25 24 17
26 0 32
26 1 32
26 2 34
26 3 10
26 4 79
26 5 108
26 6 1
26 7 65
26 8 24
26 9 42
26 10 52
26 11 72
26 12 73
26 13 40
26 14 34
26 15 17
26 16 96
26 17 99
26 18 46
26 19 8
26 20 118
26 21 30
26 22 82
26 23 104
26 24 42
26 25 88
27 0 119
27 1 17
27 2 116
27 3 100
27 4 93
27 5 49
27 6 93
27 7 40
27 8 46
27 9 21
27 10 98
27 11 15
27 12 67
27 13 16
27 14 111
27 15 35
27 16 8
27 17 2
27 18 87
27 19 102
27 20 110
27 21 45
27 22 65
27 23 97
27 24 42
27 25 50
27 26 67
28 0 61
28 1 79
28 2 71
28 3 54
28 4 38
28 5 70
28 6 72
28 7 14
28 8 32
28 9 76
28 10 118
28 11 58
28 12 17
28 13 95
28 14 60
28 15 38
28 16 10
28 17 48
28 18 114
28 19 69
28 20 92
28 21 9
28 22 13
28 23 99
28 24 78
28 25 6
28 26 116
28 27 68
29 0 1
29 1 42
29 2 57
29 3 82
29 4 63
29 5 62
29 6 42
29 7 28
29 8 99
29 9 116
29 10 102
29 11 43
29 12 17
29 13 8
29 14 48
29 15 2
29 16 6
29 17 74
29 18 61
29 19 92
29 20 116
29 21 34
29 22 56
29 23 114
29 24 85
29 25 11
29 26 78
29 27 92
29 28 66
30 0 24
30 1 50
30 2 38
30 3 40
30 4 43
30 5 2
30 6 64
30 7 89
30 8 114
30 9 113
30 10 57
30 11 90
30 12 55
30 13 72
30 14 63
30 15 89
30 16 73
30 17 39
30 18 53
30 19 120
30 20 96
30 21 2
30 22 34
30 23 49
30 24 54
30 25 4
30 26 77
30 27 79
30 28 27
30 29 2
31 0 89
31 1 33
31 2 57
31 3 96
31 4 43
31 5 28
31 6 45
31 7 79
31 8 60
31 9 117
31 10 42
31 11 59
31 12 54
31 13 14
31 14 120
31 15 75
31 16 65
31 17 30
31 18 67
31 19 56
31 20 85
31 21 52
31 22 61
31 23 16
31 24 105
31 25 49
31 26 5
31 27 90
31 28 55
31 29 71
31 30 43
32 0 9
32 1 88
32 2 51
32 3 1
32 4 80
32 5 101
32 6 77
32 7 100
32 8 87
32 9 71
32 10 45
32 11 26
32 12 38
32 13 42
32 14 44
32 15 69
32 16 76
32 17 92
32 18 75
32 19 54
32 20 58
32 21 2
32 22 27
32 23 64
32 24 19
32 25 106
32 26 30
32 27 62
32 28 49
32 29 99
32 30 108
32 31 79
33 0 16
33 1 103
33 2 38
33 3 38
33 4 120
33 5 106
33 6 99
33 7 120
33 8 23
33 9 98
33 10 41
33 11 65
33 12 106
33 13 83
33 14 37
33 15 71
33 16 26
33 17 53
33 18 64
33 19 50
33 20 105
33 21 28
33 22 65
33 23 85
33 24 55
33 25 42
33 26 47
33 27 3
33 28 44
33 29 24
33 30 31
33 31 107
33 32 95
34 0 99
34 1 114
34 2 91
34 3 8
34 4 115
34 5 41
34 6 45
34 7 68
34 8 74
34 9 44
34 10 33
34 11 81
34 12 84
34 13 116
34 14 38
34 15 88
34 16 12
34 17 33
34 18 75
34 19 109
34 20 36
34 21 93
34 22 39
34 23 51
34 24 56
34 25 46
34 26 105
34 27 56
34 28 53
34 29 65
34 30 108
34 31 105
34 32 39
34 33 104
35 0 108
35 1 43
35 2 40
35 3 108
35 4 16
35 5 99
35 6 32
35 7 1
35 8 79
35 9 16
35 10 89
35 11 64
35 12 29
35 13 25
35 14 111
35 15 75
35 16 77
35 17 63
35 18 80
35 19 54
35 20 62
35 21 39
35 22 113
35 23 89
35 24 105
35 25 115
35 26 32
35 27 88
35 28 117
35 29 42
35 30 49
35 31 10
35 32 112
35 33 57
35 34 55
36 0 37
36 1 57
36 2 35
36 3 33
36 4 91
36 5 80
36 6 64
36 7 86
36 8 31
36 9 66
36 10 31
36 11 26
36 12 96
36 13 108
36 14 27
36 15 76
36 16 16
36 17 80
36 18 31
36 19 53
36 20 109
36 21 92
36 22 45
36 23 75
36 24 99
36 25 30
36 26 25
36 27 114
36 28 119
36 29 12
36 30 5
36 31 45
36 32 43
36 33 9
36 34 65
36 35 96
37 0 116
37 1 52
37 2 106
37 3 58
37 4 41
37 5 55
37 6 120
37 7 90
37 8 43
37 9 6
37 10 117
37 11 99
37 12 39
37 13 101
37 14 4
37 15 114
37 16 15
37 17 78
37 18 55
37 19 13
37 20 86
37 21 18
37 22 49
37 23 120
37 24 32
37 25 9
37 26 75
37 27 14
37 28 89
37 29 57
37 30 41
37 31 3
37 32 89
37 33 73
37 34 107
37 35 27
37 36 106
38 0 80
38 1 111
38 2 25
38 3 9
38 4 46
38 5 19
38 6 67
38 7 44
38 8 20
38 9 10
38 10 28
38 11 40
38 12 44
38 13 7
38 14 44
38 15 17
38 16 89
38 17 86
38 18 26
38 19 92
38 20 46
38 21 74
38 22 16
38 23 112
38 24 59
38 25 62
38 26 75
38 27 100
38 28 98
38 29 95
38 30 109
38 31 87
38 32 89
38 33 101
38 34 70
38 35 103
38 36 31
38 37 51
39 0 30
39 1 43
39 2 30
39 3 42
39 4 23
39 5 10
39 6 107
39 7 6
39 8 60
39 9 69
39 10 24
39 11 84
39 12 33
39 13 54
39 14 97
39 15 19
39 16 82
39 17 16
39 18 75
39 19 105
39 20 13
39 21 70
39 22 2
39 23 37
39 24 76
39 25 50
39 26 66
39 27 91
39 28 69
39 29 80
39 30 58
39 31 74
39 32 102
39 33 7
39 34 68
39 35 30
39 36 37
39 37 58
39 38 94
40 0 26
40 1 60
40 2 11
40 3 20
40 4 65
40 5 32
40 6 31
40 7 93
40 8 5
40 9 29
40 10 17
40 11 53
40 12 15
40 13 32
40 14 98
40 15 113
40 16 63
40 17 12
40 18 10
40 19 74
40 20 97
40 21 2
40 22 52
40 23 88
40 24 84
40 25 24
40 26 95
40 27 108
40 28 60
40 29 4
40 30 3
40 31 66
40 32 23
40 33 72
40 34 42
40 35 22
40 36 5
40 37 11
40 38 6
40 39 96
41 0 74
41 1 106
41 2 33
41 3 4
41 4 92
41 5 66
41 6 85
41 7 59
41 8 100
41 9 114
41 10 43
41 11 71
41 12 17
41 13 29
41 14 111
41 15 112
41 16 76
41 17 60
41 18 44
41 19 88
41 20 10
41 21 22
41 22 69
41 23 10
41 24 40
41 25 87
41 26 51
41 27 9
41 28 51
41 29 106
41 30 60
41 31 104
41 32 82
41 33 91
41 34 36
41 35 43
41 36 118
41 37 61
41 38 90
41 39 16
41 40 94
42 0 28
42 1 31
42 2 72
42 3 98
42 4 64
42 5 82
42 6 86
42 7 36
42 8 79
42 9 114
42 10 75
42 11 18
42 12 45
42 13 27
42 14 5
42 15 75
42 16 106
42 17 92
42 18 47
42 19 40
42 20 52
42 21 119
42 22 98
42 23 51
42 24 50
42 25 33
42 26 85
42 27 69
42 28 20
42 29 74
42 30 39
42 31 6
42 32 94
42 33 15
42 34 83
42 35 91
42 36 62
42 37 109
42 38 94
42 39 48
42 40 88
42 41 120
43 0 79
43 1 105
43 2 47
43 3 24
43 4 33
43 5 76
43 6 69
43 7 10
43 8 93
43 9 81
43 10 66
43 11 64
43 12 97
43 13 35
43 14 31
43 15 64
43 16 7
43 17 105
43 18 53
43 19 11
43 20 109
43 21 34
43 22 72
43 23 61
43 24 26
43 25 73
43 26 66
43 27 49
43 28 37
43 29 43
43 30 39
43 31 21
43 32 101
43 33 53
43 34 77
43 35 96
43 36 25
43 37 43
43 38 24
43 39 28
43 40 47
43 41 67
43 42 58
44 0 80
44 1 81
44 2 109
44 3 113
44 4 63
44 5 62
44 6 72
44 7 66
44 8 114
44 9 62
44 10 8
44 11 39
44 12 9
44 13 30
44 14 79
44 15 18
44 16 52
44 17 46
44 18 29
44 19 119
44 20 25
44 21 59
44 22 104
44 23 62
44 24 34
44 25 34
44 26 18
44 27 53
44 28 21
44 29 39
44 30 23
44 31 44
44 32 46
44 33 40
44 34 120
44 35 92
44 36 92
44 37 87
44 38 99
44 39 51
44 40 108
44 41 119
44 42 92
44 43 69
45 0 63
45 1 119
45 2 91
45 3 46
45 4 79
45 5 48
45 6 79
45 7 77
45 8 104
45 9 77
45 10 116
45 11 98
45 12 92
45 13 41
45 14 77
45 15 86
45 16 99
45 17 119
45 18 94
45 19 68
45 20 119
45 21 29
45 22 35
45 23 12
45 24 88
45 25 28
45 26 99
45 27 12
45 28 54
45 29 90
45 30 59
45 31 48
45 32 58
45 33 21
45 34 24
45 35 34
45 36 5
45 37 52
45 38 77
45 39 114
45 40 97
45 41 57
45 42 30
45 43 19
45 44 17
46 0 2
46 1 78
46 2 66
46 3 119
46 4 65
46 5 54
46 6 15
46 7 8
46 8 89
46 9 45
46 10 95
46 11 88
46 12 113
46 13 5
46 14 14
46 15 102
46 16 32
46 17 118
46 18 77
46 19 51
46 20 57
46 21 80
46 22 31
46 23 89
46 24 84
46 25 73
46 26 91
46 27 60
46 28 85
46 29 95
46 30 47
46 31 117
46 32 21
46 33 5
46 34 118
46 35 35
46 36 31
46 37 18
46 38 19
46 39 40
46 40 58
46 41 82
46 42 63
46 43 106
46 44 58
46 45 113
47 0 117
47 1 117
47 2 48
47 3 58
47 4 47
47 5 67
47 6 106
47 7 11
47 8 58
47 9 3
47 10 111
47 11 26
47 12 59
47 13 18
47 14 120
47 15 21
47 16 118
47 17 52
47 18 35
47 19 83
47 20 119
47 21 1
47 22 119
47 23 64
47 24 32
47 25 70
47 26 105
47 27 42
47 28 36
47 29 115
47 30 78
47 31 115
47 32 55
47 33 29
47 34 101
47 35 85
47 36 44
47 37 90
47 38 22
47 39 71
47 40 38
47 41 22
47 42 91
47 43 35
47 44 67
47 45 69
47 46 44
48 0 49
48 1 51
48 2 18
48 3 105
48 4 44
48 5 105
48 6 7
48 7 62
48 8 108
48 9 110
48 10 68
48 11 51
48 12 13
48 13 95
48 14 37
48 15 94
48 16 44
48 17 16
48 18 60
48 19 62
48 20 84
48 21 37
48 22 51
48 23 34
48 24 43
48 25 85
48 26 50
48 27 22
48 28 88
48 29 89
48 30 18
48 31 71
48 32 93
48 33 80
48 34 23
48 35 105
48 36 73
48 37 83
48 38 104
48 39 120
48 40 10
48 41 107
48 42 111
48 43 21
48 44 30
48 45 92
48 46 92
48 47 23
49 0 26
49 1 81
49 2 116
49 3 120
49 4 90
49 5 51
49 6 57
49 7 81
49 8 71
49 9 73
49 10 90
49 11 110
49 12 50
49 13 76
49 14 79
49 15 71
49 16 95
49 17 58
49 18 108
49 19 9
49 20 83
49 21 76
49 22 30
49 23 41
49 24 41
49 25 78
49 26 8
49 27 16
49 28 56
49 29 57
49 30 71
49 31 65
49 32 25
49 33 39
49 34 14
49 35 106
49 36 38
49 37 91
49 38 18
49 39 97
49 40 45
49 41 43
49 42 116
49 43 100
49 44 13
49 45 3
49 46 32
49 47 107
49 48 13
